c File: data_files/evolved_graphs/g0154.col
c
c Auto generated graph
c
p edge 100 1686
e 1 3
e 1 4
e 1 5
e 1 6
e 1 7
e 1 8
e 1 12
e 1 13
e 1 14
e 1 15
e 1 16
e 1 18
e 1 19
e 1 20
e 1 21
e 1 22
e 1 31
e 1 32
e 1 33
e 1 34
e 1 35
e 1 36
e 1 37
e 1 38
e 1 39
e 1 40
e 1 41
e 1 42
e 1 43
e 1 44
e 1 45
e 1 46
e 1 47
e 1 48
e 1 49
e 1 50
e 1 51
e 1 52
e 1 53
e 1 54
e 1 55
e 1 69
e 1 70
e 1 71
e 1 72
e 1 77
e 1 81
e 1 85
e 1 87
e 1 88
e 1 91
e 1 92
e 1 100
e 2 3
e 2 4
e 2 5
e 2 6
e 2 7
e 2 8
e 2 14
e 2 15
e 2 16
e 2 17
e 2 18
e 2 19
e 2 20
e 2 21
e 2 22
e 2 31
e 2 32
e 2 33
e 2 35
e 2 36
e 2 38
e 2 39
e 2 40
e 2 41
e 2 42
e 2 43
e 2 44
e 2 45
e 2 46
e 2 47
e 2 48
e 2 49
e 2 50
e 2 51
e 2 52
e 2 53
e 2 55
e 2 83
e 2 84
e 2 86
e 2 87
e 2 88
e 2 90
e 2 91
e 2 92
e 2 94
e 2 95
e 2 96
e 2 100
e 3 9
e 3 14
e 3 15
e 3 16
e 3 17
e 3 18
e 3 19
e 3 20
e 3 21
e 3 24
e 3 26
e 3 27
e 3 28
e 3 29
e 3 30
e 3 33
e 3 34
e 3 36
e 3 37
e 3 38
e 3 39
e 3 40
e 3 41
e 3 42
e 3 44
e 3 45
e 3 47
e 3 48
e 3 49
e 3 50
e 3 52
e 3 53
e 3 54
e 3 55
e 3 56
e 3 57
e 3 58
e 3 59
e 3 60
e 3 61
e 3 62
e 3 63
e 3 64
e 3 65
e 3 66
e 3 70
e 3 71
e 3 76
e 3 87
e 3 88
e 3 89
e 3 92
e 3 94
e 3 95
e 3 96
e 4 14
e 4 15
e 4 17
e 4 18
e 4 19
e 4 20
e 4 21
e 4 22
e 4 24
e 4 26
e 4 27
e 4 28
e 4 29
e 4 30
e 4 31
e 4 32
e 4 33
e 4 34
e 4 36
e 4 37
e 4 38
e 4 40
e 4 41
e 4 42
e 4 43
e 4 44
e 4 45
e 4 46
e 4 48
e 4 49
e 4 50
e 4 51
e 4 52
e 4 53
e 4 54
e 4 55
e 4 56
e 4 57
e 4 58
e 4 59
e 4 61
e 4 62
e 4 63
e 4 64
e 4 66
e 4 67
e 4 69
e 4 78
e 4 87
e 4 88
e 4 89
e 4 90
e 4 91
e 4 92
e 4 93
e 4 94
e 4 95
e 4 96
e 4 100
e 5 14
e 5 15
e 5 16
e 5 17
e 5 18
e 5 19
e 5 20
e 5 21
e 5 22
e 5 24
e 5 25
e 5 26
e 5 27
e 5 28
e 5 29
e 5 30
e 5 31
e 5 32
e 5 33
e 5 34
e 5 36
e 5 37
e 5 38
e 5 39
e 5 40
e 5 41
e 5 43
e 5 44
e 5 46
e 5 47
e 5 48
e 5 49
e 5 50
e 5 51
e 5 52
e 5 54
e 5 55
e 5 56
e 5 57
e 5 58
e 5 59
e 5 60
e 5 61
e 5 62
e 5 63
e 5 64
e 5 65
e 5 66
e 5 67
e 5 87
e 5 88
e 5 89
e 5 90
e 5 91
e 5 92
e 5 93
e 5 94
e 5 95
e 5 96
e 6 10
e 6 14
e 6 15
e 6 17
e 6 18
e 6 19
e 6 20
e 6 21
e 6 22
e 6 24
e 6 25
e 6 26
e 6 27
e 6 28
e 6 29
e 6 30
e 6 31
e 6 32
e 6 33
e 6 34
e 6 35
e 6 37
e 6 38
e 6 39
e 6 40
e 6 41
e 6 42
e 6 43
e 6 44
e 6 45
e 6 46
e 6 47
e 6 48
e 6 49
e 6 50
e 6 51
e 6 52
e 6 53
e 6 57
e 6 58
e 6 59
e 6 60
e 6 61
e 6 62
e 6 63
e 6 64
e 6 65
e 6 66
e 6 67
e 6 78
e 6 87
e 6 89
e 6 90
e 6 91
e 6 92
e 6 93
e 6 94
e 6 95
e 6 96
e 6 100
e 7 14
e 7 15
e 7 16
e 7 17
e 7 18
e 7 19
e 7 20
e 7 21
e 7 22
e 7 25
e 7 26
e 7 28
e 7 29
e 7 30
e 7 31
e 7 33
e 7 34
e 7 36
e 7 37
e 7 38
e 7 39
e 7 40
e 7 41
e 7 42
e 7 43
e 7 44
e 7 45
e 7 46
e 7 47
e 7 48
e 7 49
e 7 50
e 7 51
e 7 52
e 7 53
e 7 54
e 7 56
e 7 58
e 7 60
e 7 62
e 7 63
e 7 64
e 7 65
e 7 67
e 7 68
e 7 69
e 7 70
e 7 71
e 7 74
e 7 76
e 7 87
e 7 88
e 7 91
e 7 92
e 7 93
e 7 94
e 7 95
e 7 96
e 8 9
e 8 14
e 8 15
e 8 16
e 8 17
e 8 18
e 8 19
e 8 20
e 8 22
e 8 24
e 8 26
e 8 27
e 8 28
e 8 29
e 8 30
e 8 31
e 8 39
e 8 40
e 8 41
e 8 42
e 8 43
e 8 45
e 8 53
e 8 54
e 8 56
e 8 57
e 8 58
e 8 59
e 8 61
e 8 62
e 8 64
e 8 69
e 8 70
e 8 71
e 8 72
e 8 73
e 8 74
e 8 87
e 8 88
e 8 89
e 8 90
e 8 91
e 8 92
e 8 93
e 8 95
e 8 96
e 9 14
e 9 15
e 9 16
e 9 17
e 9 18
e 9 19
e 9 20
e 9 21
e 9 22
e 9 24
e 9 25
e 9 26
e 9 27
e 9 29
e 9 30
e 9 31
e 9 39
e 9 41
e 9 42
e 9 51
e 9 52
e 9 53
e 9 55
e 9 56
e 9 58
e 9 59
e 9 60
e 9 61
e 9 62
e 9 64
e 9 66
e 9 67
e 9 68
e 9 69
e 9 70
e 9 73
e 9 74
e 9 75
e 9 76
e 9 78
e 9 87
e 9 88
e 9 89
e 9 91
e 9 92
e 9 94
e 9 95
e 9 96
e 9 100
e 10 14
e 10 15
e 10 16
e 10 17
e 10 18
e 10 19
e 10 20
e 10 21
e 10 22
e 10 26
e 10 27
e 10 28
e 10 29
e 10 30
e 10 31
e 10 32
e 10 33
e 10 34
e 10 36
e 10 37
e 10 38
e 10 39
e 10 40
e 10 41
e 10 42
e 10 43
e 10 46
e 10 49
e 10 50
e 10 51
e 10 53
e 10 54
e 10 75
e 10 78
e 10 87
e 10 88
e 10 90
e 10 91
e 10 92
e 10 93
e 10 94
e 10 95
e 10 96
e 11 14
e 11 15
e 11 16
e 11 17
e 11 18
e 11 19
e 11 20
e 11 21
e 11 22
e 11 27
e 11 28
e 11 29
e 11 30
e 11 31
e 11 32
e 11 33
e 11 34
e 11 35
e 11 36
e 11 39
e 11 40
e 11 41
e 11 42
e 11 43
e 11 49
e 11 50
e 11 51
e 11 52
e 11 53
e 11 54
e 11 55
e 11 78
e 11 87
e 11 88
e 11 89
e 11 90
e 11 91
e 11 92
e 11 93
e 11 94
e 11 96
e 12 14
e 12 16
e 12 17
e 12 18
e 12 19
e 12 20
e 12 21
e 12 22
e 12 25
e 12 26
e 12 27
e 12 28
e 12 30
e 12 31
e 12 32
e 12 33
e 12 34
e 12 35
e 12 36
e 12 37
e 12 38
e 12 39
e 12 40
e 12 41
e 12 42
e 12 43
e 12 49
e 12 51
e 12 53
e 12 54
e 12 55
e 12 56
e 12 85
e 12 100
e 13 14
e 13 23
e 13 26
e 13 27
e 13 28
e 13 29
e 13 30
e 13 31
e 13 32
e 13 33
e 13 34
e 13 35
e 13 36
e 13 37
e 13 39
e 13 40
e 13 41
e 13 42
e 13 43
e 13 44
e 13 45
e 13 46
e 13 47
e 13 48
e 13 49
e 13 50
e 13 51
e 13 52
e 13 53
e 13 54
e 13 55
e 13 80
e 14 23
e 14 26
e 14 27
e 14 28
e 14 29
e 14 30
e 14 31
e 14 32
e 14 33
e 14 35
e 14 36
e 14 37
e 14 38
e 14 39
e 14 40
e 14 41
e 14 42
e 14 43
e 14 44
e 14 45
e 14 46
e 14 47
e 14 48
e 14 53
e 14 54
e 14 55
e 14 56
e 14 82
e 14 97
e 14 98
e 14 99
e 15 23
e 15 25
e 15 26
e 15 28
e 15 29
e 15 31
e 15 32
e 15 33
e 15 34
e 15 35
e 15 36
e 15 37
e 15 38
e 15 39
e 15 40
e 15 41
e 15 42
e 15 43
e 15 44
e 15 46
e 15 47
e 15 48
e 15 53
e 15 54
e 15 56
e 15 57
e 15 58
e 15 59
e 15 60
e 15 61
e 15 62
e 15 63
e 15 64
e 15 65
e 15 66
e 15 69
e 15 97
e 15 98
e 15 99
e 16 23
e 16 24
e 16 26
e 16 27
e 16 28
e 16 29
e 16 30
e 16 31
e 16 32
e 16 33
e 16 34
e 16 35
e 16 36
e 16 37
e 16 38
e 16 39
e 16 40
e 16 41
e 16 42
e 16 43
e 16 44
e 16 45
e 16 46
e 16 47
e 16 48
e 16 53
e 16 54
e 16 57
e 16 58
e 16 59
e 16 60
e 16 61
e 16 62
e 16 63
e 16 64
e 16 65
e 16 66
e 16 67
e 16 76
e 16 97
e 16 98
e 17 27
e 17 28
e 17 29
e 17 30
e 17 31
e 17 32
e 17 33
e 17 34
e 17 36
e 17 37
e 17 38
e 17 39
e 17 40
e 17 41
e 17 42
e 17 43
e 17 44
e 17 45
e 17 46
e 17 47
e 17 48
e 17 53
e 17 54
e 17 57
e 17 58
e 17 59
e 17 60
e 17 61
e 17 62
e 17 63
e 17 64
e 17 65
e 17 66
e 17 69
e 17 71
e 17 74
e 17 77
e 17 97
e 17 98
e 17 99
e 18 25
e 18 26
e 18 27
e 18 28
e 18 29
e 18 30
e 18 31
e 18 32
e 18 33
e 18 34
e 18 35
e 18 36
e 18 37
e 18 38
e 18 39
e 18 41
e 18 42
e 18 43
e 18 44
e 18 45
e 18 46
e 18 47
e 18 48
e 18 49
e 18 50
e 18 51
e 18 52
e 18 53
e 18 54
e 18 57
e 18 58
e 18 59
e 18 60
e 18 62
e 18 63
e 18 64
e 18 65
e 18 66
e 18 76
e 18 77
e 18 97
e 18 98
e 19 25
e 19 26
e 19 27
e 19 28
e 19 29
e 19 30
e 19 31
e 19 33
e 19 35
e 19 37
e 19 38
e 19 39
e 19 40
e 19 42
e 19 43
e 19 44
e 19 45
e 19 46
e 19 47
e 19 48
e 19 49
e 19 50
e 19 51
e 19 52
e 19 53
e 19 54
e 19 57
e 19 58
e 19 59
e 19 60
e 19 61
e 19 62
e 19 63
e 19 64
e 19 65
e 19 66
e 19 67
e 19 94
e 19 98
e 20 25
e 20 26
e 20 27
e 20 28
e 20 29
e 20 30
e 20 31
e 20 32
e 20 33
e 20 34
e 20 35
e 20 36
e 20 37
e 20 38
e 20 39
e 20 40
e 20 41
e 20 42
e 20 43
e 20 44
e 20 45
e 20 46
e 20 47
e 20 48
e 20 49
e 20 50
e 20 51
e 20 52
e 20 53
e 20 54
e 20 57
e 20 58
e 20 59
e 20 60
e 20 61
e 20 62
e 20 63
e 20 64
e 20 65
e 20 66
e 20 68
e 20 77
e 20 79
e 20 80
e 20 81
e 20 82
e 20 83
e 20 84
e 20 85
e 21 25
e 21 26
e 21 27
e 21 28
e 21 29
e 21 30
e 21 31
e 21 32
e 21 33
e 21 34
e 21 35
e 21 36
e 21 37
e 21 38
e 21 39
e 21 40
e 21 41
e 21 42
e 21 44
e 21 45
e 21 46
e 21 47
e 21 48
e 21 49
e 21 50
e 21 51
e 21 52
e 21 53
e 21 54
e 21 57
e 21 59
e 21 60
e 21 61
e 21 62
e 21 63
e 21 64
e 21 65
e 21 66
e 21 69
e 21 74
e 21 75
e 21 79
e 21 80
e 21 81
e 21 82
e 21 83
e 21 84
e 21 85
e 21 98
e 22 25
e 22 26
e 22 27
e 22 28
e 22 29
e 22 30
e 22 31
e 22 32
e 22 33
e 22 34
e 22 35
e 22 36
e 22 37
e 22 38
e 22 39
e 22 40
e 22 41
e 22 42
e 22 43
e 22 45
e 22 46
e 22 47
e 22 48
e 22 49
e 22 50
e 22 51
e 22 52
e 22 53
e 22 54
e 22 57
e 22 58
e 22 59
e 22 60
e 22 61
e 22 62
e 22 63
e 22 64
e 22 65
e 22 66
e 22 69
e 22 71
e 22 72
e 22 79
e 22 80
e 22 81
e 22 82
e 22 83
e 22 84
e 22 85
e 22 90
e 23 25
e 23 27
e 23 28
e 23 29
e 23 30
e 23 31
e 23 32
e 23 33
e 23 34
e 23 35
e 23 36
e 23 37
e 23 38
e 23 39
e 23 40
e 23 41
e 23 42
e 23 43
e 23 44
e 23 45
e 23 47
e 23 48
e 23 49
e 23 50
e 23 51
e 23 52
e 23 53
e 23 54
e 23 57
e 23 58
e 23 59
e 23 60
e 23 61
e 23 62
e 23 63
e 23 65
e 23 66
e 23 67
e 23 68
e 23 69
e 23 70
e 23 71
e 23 72
e 23 73
e 23 74
e 23 75
e 23 76
e 23 79
e 23 80
e 23 81
e 23 82
e 23 83
e 23 84
e 23 85
e 24 25
e 24 26
e 24 27
e 24 28
e 24 29
e 24 30
e 24 31
e 24 32
e 24 33
e 24 34
e 24 35
e 24 36
e 24 37
e 24 38
e 24 39
e 24 40
e 24 41
e 24 42
e 24 43
e 24 44
e 24 45
e 24 46
e 24 47
e 24 48
e 24 49
e 24 50
e 24 51
e 24 52
e 24 53
e 24 54
e 24 68
e 24 74
e 24 83
e 24 86
e 25 59
e 25 83
e 25 85
e 26 55
e 26 70
e 26 78
e 26 85
e 27 55
e 27 79
e 28 55
e 28 59
e 29 55
e 29 66
e 29 70
e 30 54
e 30 55
e 30 60
e 30 79
e 30 95
e 31 55
e 31 59
e 31 85
e 31 94
e 31 95
e 32 55
e 32 58
e 32 69
e 32 79
e 32 95
e 32 96
e 33 55
e 33 60
e 33 61
e 33 62
e 33 63
e 33 64
e 33 65
e 33 66
e 33 67
e 33 69
e 33 70
e 33 71
e 33 72
e 33 73
e 33 76
e 33 95
e 34 55
e 34 79
e 34 84
e 34 95
e 35 55
e 35 95
e 36 55
e 36 79
e 36 95
e 37 55
e 37 83
e 37 95
e 38 55
e 39 55
e 40 78
e 42 76
e 42 98
e 43 98
e 44 76
e 48 75
e 48 80
e 51 74
e 51 78
e 51 79
e 51 80
e 51 81
e 52 76
e 52 78
e 52 79
e 52 80
e 52 81
e 53 74
e 53 78
e 53 79
e 53 80
e 53 81
e 54 86
e 54 88
e 54 89
e 54 92
e 54 95
e 54 96
e 54 97
e 54 98
e 54 99
e 54 100
e 55 89
e 55 95
e 55 96
e 55 97
e 55 98
e 55 100
e 56 87
e 56 90
e 56 95
e 56 96
e 56 97
e 56 98
e 56 99
e 56 100
e 57 95
e 57 96
e 57 97
e 57 98
e 57 99
e 57 100
e 58 95
e 58 96
e 58 97
e 58 98
e 58 99
e 58 100
e 59 95
e 59 96
e 59 97
e 59 98
e 59 99
e 59 100
e 60 95
e 60 96
e 60 97
e 60 98
e 60 99
e 60 100
e 61 95
e 61 96
e 61 97
e 61 98
e 61 99
e 61 100
e 62 83
e 62 84
e 62 85
e 62 87
e 62 88
e 62 89
e 62 90
e 62 91
e 62 92
e 62 93
e 62 94
e 62 95
e 62 96
e 62 97
e 62 98
e 62 99
e 62 100
e 63 83
e 63 84
e 63 85
e 63 86
e 63 87
e 63 88
e 63 89
e 63 90
e 63 91
e 63 92
e 63 93
e 63 94
e 63 96
e 63 97
e 63 98
e 63 99
e 63 100
e 64 83
e 64 84
e 64 85
e 64 86
e 64 87
e 64 88
e 64 89
e 64 90
e 64 91
e 64 92
e 64 93
e 64 94
e 64 95
e 64 96
e 64 97
e 64 98
e 64 99
e 64 100
e 65 83
e 65 84
e 65 85
e 65 86
e 65 87
e 65 88
e 65 90
e 65 91
e 65 92
e 65 93
e 65 94
e 65 95
e 65 96
e 65 97
e 65 98
e 65 99
e 65 100
e 66 83
e 66 84
e 66 85
e 66 86
e 66 87
e 66 88
e 66 90
e 66 91
e 66 92
e 66 93
e 66 94
e 66 95
e 66 96
e 66 97
e 66 98
e 66 99
e 66 100
e 67 79
e 67 83
e 67 84
e 67 85
e 67 86
e 67 87
e 67 88
e 67 89
e 67 90
e 67 91
e 67 92
e 67 93
e 67 94
e 67 95
e 67 96
e 67 97
e 67 98
e 67 99
e 67 100
e 68 83
e 68 84
e 68 85
e 68 86
e 68 87
e 68 88
e 68 89
e 68 90
e 68 91
e 68 92
e 68 93
e 68 94
e 68 95
e 68 96
e 68 98
e 68 99
e 68 100
e 69 70
e 69 71
e 69 72
e 69 76
e 69 78
e 69 79
e 69 80
e 69 81
e 69 83
e 69 84
e 69 85
e 69 86
e 69 87
e 69 88
e 69 89
e 69 90
e 69 91
e 69 92
e 69 93
e 69 94
e 69 95
e 69 96
e 69 97
e 69 98
e 69 99
e 69 100
e 70 78
e 70 79
e 70 80
e 70 81
e 70 83
e 70 84
e 70 85
e 70 86
e 70 87
e 70 88
e 70 90
e 70 91
e 70 92
e 70 93
e 70 94
e 70 95
e 70 96
e 70 97
e 70 98
e 70 99
e 70 100
e 71 78
e 71 79
e 71 80
e 71 81
e 71 83
e 71 84
e 71 85
e 71 86
e 71 87
e 71 88
e 71 89
e 71 90
e 71 91
e 71 92
e 71 93
e 71 94
e 71 95
e 71 96
e 71 97
e 71 98
e 71 99
e 71 100
e 72 78
e 72 79
e 72 80
e 72 81
e 72 83
e 72 84
e 72 85
e 72 86
e 72 87
e 72 88
e 72 89
e 72 90
e 72 91
e 72 92
e 72 93
e 72 94
e 72 95
e 72 96
e 72 97
e 72 98
e 72 99
e 72 100
e 73 78
e 73 79
e 73 80
e 73 81
e 73 83
e 73 84
e 73 85
e 73 86
e 73 87
e 73 88
e 73 89
e 73 90
e 73 91
e 73 92
e 73 93
e 73 94
e 73 95
e 73 96
e 73 97
e 73 98
e 73 99
e 73 100
e 74 78
e 74 79
e 74 80
e 74 81
e 74 83
e 74 84
e 74 85
e 74 86
e 74 87
e 74 88
e 74 89
e 74 90
e 74 91
e 74 92
e 74 93
e 74 94
e 74 95
e 74 96
e 74 97
e 74 98
e 74 99
e 74 100
e 75 78
e 75 79
e 75 80
e 75 81
e 75 83
e 75 84
e 75 85
e 75 86
e 75 87
e 75 88
e 75 89
e 75 90
e 75 91
e 75 92
e 75 93
e 75 94
e 75 95
e 75 96
e 75 98
e 75 99
e 75 100
e 76 78
e 76 79
e 76 80
e 76 81
e 76 83
e 76 84
e 76 85
e 76 86
e 76 87
e 76 88
e 76 89
e 76 90
e 76 91
e 76 92
e 76 93
e 76 94
e 76 95
e 76 96
e 76 97
e 76 98
e 76 99
e 76 100
e 77 82
e 77 83
e 77 84
e 77 85
e 77 86
e 77 87
e 77 88
e 77 89
e 77 90
e 77 91
e 77 92
e 77 93
e 77 94
e 77 95
e 77 96
e 77 97
e 77 98
e 77 99
e 77 100
e 78 83
e 78 84
e 78 85
e 78 86
e 78 87
e 78 88
e 78 89
e 78 90
e 78 91
e 78 92
e 78 93
e 78 94
e 78 95
e 78 96
e 78 97
e 78 98
e 78 99
e 78 100
e 79 83
e 79 84
e 79 85
e 79 86
e 79 87
e 79 88
e 79 89
e 79 90
e 79 91
e 79 92
e 79 93
e 79 94
e 79 95
e 79 96
e 79 97
e 79 98
e 79 99
e 79 100
e 80 83
e 80 84
e 80 85
e 80 86
e 80 87
e 80 88
e 80 89
e 80 90
e 80 91
e 80 92
e 80 93
e 80 94
e 80 95
e 80 96
e 80 97
e 80 98
e 80 99
e 80 100
e 81 83
e 81 84
e 81 85
e 81 86
e 81 87
e 81 88
e 81 89
e 81 90
e 81 91
e 81 92
e 81 93
e 81 94
e 81 95
e 81 96
e 81 97
e 81 98
e 81 99
e 81 100
e 82 83
e 82 84
e 82 85
e 82 86
e 82 87
e 82 88
e 82 89
e 82 90
e 82 91
e 82 92
e 82 93
e 82 94
e 82 95
e 82 96
e 82 97
e 82 98
e 82 100
e 83 90
e 83 91
e 83 92
e 83 93
e 83 94
e 83 95
e 83 96
e 83 97
e 83 98
e 83 99
e 83 100
e 84 90
e 84 91
e 84 92
e 84 93
e 84 94
e 84 97
e 85 87
e 85 88
e 85 89
e 85 90
e 85 91
e 85 92
e 85 93
e 85 94
e 86 87
e 86 88
e 86 89
e 86 90
e 86 91
e 86 92
e 86 93
e 86 94
e 89 91
e 90 100
e 91 96
